6 6 139
5 5 1 3 1 3 2 6 3 6 4 1 21 21 41 41 85 85 117 117 137 
5 1 1 2 1 1 2 5 3 5 4 2 26 26 50 50 86 86 118 118 134 
5 4 1 5 2 4 2 3 3 4 3 12 34 34 60 60 102 102 120 120 138 
5 6 1 6 2 2 2 2 3 1 3 13 31 31 57 57 95 95 117 117 139 
13 5 1 6 1 6 1 2 1 2 1 5 2 5 2 5 3 6 3 6 3 3 3 1 3 1 3 0 1 1 7 7 13 13 14 14 16 16 22 22 26 60 64 64 68 68 70 85 89 89 93 93 97 
7 1 1 4 1 4 1 3 1 3 1 2 2 2 2 0 2 2 7 7 12 12 14 14 15 49 50 50 54 
